0 54 67 92 63 60 83 22 90 25
54 0 3 89 15 78 29 62 62 31
67 3 0 40 94 75 98 32 74 23
92 89 40 0 98 5 8 7 40 78
63 15 94 98 0 18 16 4 5 27
60 78 75 5 18 0 30 19 91 84
83 29 98 8 16 30 0 95 12 41
22 62 32 7 4 19 95 0 15 15
90 62 74 40 5 91 12 15 0 86
25 31 23 78 27 84 41 15 86 0
